Cost: 462
0-34-27-4-0
0-7-35-19-8-46-0
0-22-42-41-43-1-0
0-47-36-21-28-2-0
0-26-12-40-17-0
0-6-33-23-49-16-0
0-45-29-5-48-30-0
0-39-9-32-44-3-0
Cost: 462
0-4-27-34-0
0-22-42-41-43-1-0
0-6-33-23-49-16-0
0-26-12-40-17-0
0-30-48-5-29-45-0
0-39-9-32-44-3-0
0-7-35-19-8-46-0
0-2-28-21-36-47-0
Cost: 462
0-34-27-4-0
0-7-35-19-8-46-0
0-22-42-41-43-1-0
0-47-36-21-28-2-0
0-26-12-40-17-0
0-6-33-23-49-16-0
0-45-29-5-48-30-0
0-39-9-32-44-3-0
Cost: 462
0-34-27-4-0
0-2-28-21-36-47-0
0-7-35-19-8-46-0
0-26-12-40-17-0
0-6-33-23-49-16-0
0-3-44-32-9-39-0
0-45-29-5-48-30-0
0-1-43-41-42-22-0
Cost: 462
0-30-48-5-29-45-0
0-1-43-41-42-22-0
0-7-35-19-8-46-0
0-2-28-21-36-47-0
0-4-27-34-0
0-3-44-32-9-39-0
0-6-33-23-49-16-0
0-17-40-12-26-0
Cost: 462
0-2-28-21-36-47-0
0-22-42-41-43-1-0
0-46-8-19-35-7-0
0-26-12-40-17-0
0-39-9-32-44-3-0
0-16-49-23-33-6-0
0-34-27-4-0
0-30-48-5-29-45-0
Cost: 462
0-26-12-40-17-0
0-45-29-5-48-30-0
0-39-9-32-44-3-0
0-1-43-41-42-22-0
0-34-27-4-0
0-16-49-23-33-6-0
0-2-28-21-36-47-0
0-46-8-19-35-7-0
Cost: 462
0-26-12-40-17-0
0-45-29-5-48-30-0
0-39-9-32-44-3-0
0-1-43-41-42-22-0
0-34-27-4-0
0-16-49-23-33-6-0
0-2-28-21-36-47-0
0-46-8-19-35-7-0
Cost: 462
0-26-12-40-17-0
0-45-29-5-48-30-0
0-39-9-32-44-3-0
0-1-43-41-42-22-0
0-34-27-4-0
0-16-49-23-33-6-0
0-2-28-21-36-47-0
0-46-8-19-35-7-0
Cost: 462
0-22-42-41-43-1-0
0-47-36-21-28-2-0
0-30-48-5-29-45-0
0-4-27-34-0
0-26-12-40-17-0
0-6-33-23-49-16-0
0-3-44-32-9-39-0
0-46-8-19-35-7-0
Cost: 462
0-30-48-5-29-45-0
0-1-43-41-42-22-0
0-47-36-21-28-2-0
0-6-33-23-49-16-0
0-34-27-4-0
0-7-35-19-8-46-0
0-39-9-32-44-3-0
0-17-40-12-26-0
Cost: 462
0-16-49-23-33-6-0
0-30-48-5-29-45-0
0-17-40-12-26-0
0-34-27-4-0
0-39-9-32-44-3-0
0-1-43-41-42-22-0
0-47-36-21-28-2-0
0-7-35-19-8-46-0
Cost: 462
0-30-48-5-29-45-0
0-1-43-41-42-22-0
0-47-36-21-28-2-0
0-6-33-23-49-16-0
0-34-27-4-0
0-7-35-19-8-46-0
0-39-9-32-44-3-0
0-17-40-12-26-0
Cost: 462
0-30-48-5-29-45-0
0-34-27-4-0
0-1-43-41-42-22-0
0-3-44-32-9-39-0
0-47-36-21-28-2-0
0-7-35-19-8-46-0
0-6-33-23-49-16-0
0-26-12-40-17-0
Cost: 462
0-30-48-5-29-45-0
0-1-43-41-42-22-0
0-47-36-21-28-2-0
0-6-33-23-49-16-0
0-34-27-4-0
0-7-35-19-8-46-0
0-39-9-32-44-3-0
0-17-40-12-26-0
Cost: 462
0-30-48-5-29-45-0
0-1-43-41-42-22-0
0-47-36-21-28-2-0
0-6-33-23-49-16-0
0-34-27-4-0
0-7-35-19-8-46-0
0-39-9-32-44-3-0
0-17-40-12-26-0
Cost: 462
0-26-12-40-17-0
0-3-44-32-9-39-0
0-4-27-34-0
0-6-33-23-49-16-0
0-45-29-5-48-30-0
0-22-42-41-43-1-0
0-2-28-21-36-47-0
0-7-35-19-8-46-0
Cost: 462
0-4-27-34-0
0-1-43-41-42-22-0
0-7-35-19-8-46-0
0-17-40-12-26-0
0-47-36-21-28-2-0
0-30-48-5-29-45-0
0-6-33-23-49-16-0
0-3-44-32-9-39-0
Cost: 462
0-1-43-41-42-22-0
0-4-27-34-0
0-2-28-21-36-47-0
0-26-12-40-17-0
0-46-8-19-35-7-0
0-30-48-5-29-45-0
0-39-9-32-44-3-0
0-6-33-23-49-16-0
Cost: 462
0-1-43-41-42-22-0
0-4-27-34-0
0-2-28-21-36-47-0
0-26-12-40-17-0
0-46-8-19-35-7-0
0-30-48-5-29-45-0
0-39-9-32-44-3-0
0-6-33-23-49-16-0
Cost: 462
0-30-48-5-29-45-0
0-3-44-32-9-39-0
0-34-27-4-0
0-47-36-21-28-2-0
0-7-35-19-8-46-0
0-17-40-12-26-0
0-1-43-41-42-22-0
0-6-33-23-49-16-0
Cost: 462
0-30-48-5-29-45-0
0-3-44-32-9-39-0
0-34-27-4-0
0-47-36-21-28-2-0
0-7-35-19-8-46-0
0-17-40-12-26-0
0-1-43-41-42-22-0
0-6-33-23-49-16-0
Cost: 462
0-22-42-41-43-1-0
0-39-9-32-44-3-0
0-4-27-34-0
0-26-12-40-17-0
0-7-35-19-8-46-0
0-16-49-23-33-6-0
0-30-48-5-29-45-0
0-47-36-21-28-2-0
Cost: 462
0-30-48-5-29-45-0
0-3-44-32-9-39-0
0-34-27-4-0
0-47-36-21-28-2-0
0-7-35-19-8-46-0
0-17-40-12-26-0
0-1-43-41-42-22-0
0-6-33-23-49-16-0
Cost: 462
0-4-27-34-0
0-1-43-41-42-22-0
0-7-35-19-8-46-0
0-17-40-12-26-0
0-47-36-21-28-2-0
0-30-48-5-29-45-0
0-6-33-23-49-16-0
0-3-44-32-9-39-0
Cost: 462
0-1-43-41-42-22-0
0-4-27-34-0
0-2-28-21-36-47-0
0-26-12-40-17-0
0-46-8-19-35-7-0
0-30-48-5-29-45-0
0-39-9-32-44-3-0
0-6-33-23-49-16-0
Cost: 462
0-3-44-32-9-39-0
0-2-28-21-36-47-0
0-26-12-40-17-0
0-34-27-4-0
0-46-8-19-35-7-0
0-22-42-41-43-1-0
0-6-33-23-49-16-0
0-45-29-5-48-30-0
Cost: 466
0-7-35-19-8-46-0
0-33-23-41-43-1-0
0-44-32-9-39-40-0
0-4-45-27-34-0
0-47-36-37-5-29-0
0-3-24-49-16-6-0
0-17-12-26-0
0-2-28-21-48-30-0
Cost: 468
0-23-41-42-43-33-0
0-5-37-36-47-21-0
0-45-29-48-30-4-0
0-7-35-19-13-27-0
0-2-28-22-1-6-0
0-3-44-32-9-39-0
0-17-40-12-26-0
0-46-8-34-0
Cost: 462
0-26-12-40-17-0
0-22-42-41-43-1-0
0-16-49-23-33-6-0
0-7-35-19-8-46-0
0-47-36-21-28-2-0
0-30-48-5-29-45-0
0-39-9-32-44-3-0
0-34-27-4-0
Cost: 462
0-47-36-21-28-2-0
0-1-43-41-42-22-0
0-26-12-40-17-0
0-6-33-23-49-16-0
0-39-9-32-44-3-0
0-30-48-5-29-45-0
0-34-27-4-0
0-46-8-19-35-7-0
